
Welcome to IBM(R) ILOG(R) CPLEX(R) Interactive Optimizer 12.7.1.0
  with Simplex, Mixed Integer & Barrier Optimizers
5725-A06 5725-A29 5724-Y48 5724-Y49 5724-Y54 5724-Y55 5655-Y21
Copyright IBM Corp. 1988, 2017.  All Rights Reserved.

Type 'help' for a list of available commands.
Type 'help' followed by a command name for more
information on commands.

CPLEX> New value for default parallel thread count: 1
CPLEX> New value for time limit in seconds: 3600
CPLEX> Problem 'eil76_m36.lp' read.
Read time = 0.26 sec. (22.49 ticks)
CPLEX> CPXPARAM_TimeLimit                               3600
CPXPARAM_Threads                                 1
CPXPARAM_Read_APIEncoding                        "UTF-8"
Tried aggregator 1 time.
MIP Presolve modified 210600 coefficients.
Reduced MIP has 8508 rows, 205276 columns, and 1226568 nonzeros.
Reduced MIP has 205200 binaries, 75 generals, 0 SOSs, and 0 indicators.
Presolve time = 0.74 sec. (937.15 ticks)
Tried aggregator 1 time.
Reduced MIP has 8508 rows, 205276 columns, and 1226568 nonzeros.
Reduced MIP has 205200 binaries, 76 generals, 0 SOSs, and 0 indicators.
Presolve time = 0.79 sec. (650.85 ticks)
Probing time = 0.23 sec. (97.72 ticks)
Clique table members: 401799.
MIP emphasis: balance optimality and feasibility.
MIP search method: dynamic search.
Parallel mode: none, using 1 thread.
Root relaxation solution time = 42.98 sec. (68753.49 ticks)

        Nodes                                         Cuts/
   Node  Left     Objective  IInf  Best Integer    Best Bound    ItCnt     Gap

      0     0       45.6215   299                     45.6215    42656         
      0     0       46.2542   286                    Cuts: 39    74547         
      0     0       47.0000   518                    Cuts: 82   120751         
      0     0       47.0000   584                   Cuts: 105   157334         
      0     0       47.0000   453                    Cuts: 19   176836         
      0     0       47.0000   569                   Cuts: 233   212929         
Heuristic still looking.
Heuristic still looking.
      0     2       47.0000   290                     47.0000   212929         
Elapsed time = 886.62 sec. (1330940.94 ticks, tree = 0.01 MB, solutions = 0)
      1     3       47.0000   326                     47.0000   232271         
      2     4       47.0000   325                     47.0000   233683         
      3     5       47.0000   317                     47.0000   234379         
      4     6       47.0000   319                     47.0000   234750         
      5     7       47.0000   420                     47.0000   254847         
      6     8       47.0000   318                     47.0000   255521         
      7     9       47.0000   336                     47.0000   256059         
      8    10       47.0000   316                     47.0000   273455         
      9    11       47.0000   325                     47.0000   273842         
     10    12       47.0000   336                     47.0000   274393         
Elapsed time = 1007.45 sec. (1538317.19 ticks, tree = 1.72 MB, solutions = 0)
     11    13       47.0000   356                     47.0000   275103         
     12    14       47.0000   379                     47.0000   275569         
     13    15       51.4500   441                     47.0000   298880         
     14    16       47.0000   329                     47.0000   299660         
     15    17       47.0000   330                     47.0000   299984         
     16    18       47.0000   315                     47.0000   314407         
     17    19       47.0000   351                     47.0000   315120         
     18    20       47.0000   345                     47.0000   326243         
     19    21       47.0000   336                     47.0000   335751         
     20    22       47.0000   313                     47.0000   344748         
Elapsed time = 1113.60 sec. (1704260.10 ticks, tree = 3.48 MB, solutions = 0)
     23    25       47.0000   341                     47.0000   351330         
     24    26       47.0000   301                     47.0000   356416         
     25    27       47.0000   305                     47.0000   365189         
     26    28       47.0000   321                     47.0000   376404         
     27    29       47.0000   297                     47.0000   376412         
     28    30       47.0000   297                     47.0000   376416         
     29    31       52.1500   354                     47.0000   384775         
     30    32       47.0000   306                     47.0000   384812         
     31    33       47.0000   285                     47.0000   385132         
     33    35       47.0000   297                     47.0000   388278         
Elapsed time = 1216.11 sec. (1893761.22 ticks, tree = 5.78 MB, solutions = 0)
     36    38       47.0000   295                     47.0000   390858         
     37    39       47.0000   317                     47.0000   391456         
     38    40       47.0000   302                     47.0000   395102         
     39    41       47.0000   295                     47.0000   395567         
     40    42       47.0000   292                     47.0000   397116         
     41    43       47.0000   293                     47.0000   398160         
     42    44       47.0376   276                     47.0000   403876         
     43    45       47.0000   279                     47.0000   405847         
     45    47       47.0000   287                     47.0000   408941         
     46    48       47.0000   263                     47.0000   410241         
Elapsed time = 1246.60 sec. (1947675.98 ticks, tree = 8.11 MB, solutions = 0)
     47    49       47.0000   287                     47.0000   410739         
     48    50       47.0000   281                     47.0000   411143         
     49    51       47.0000   281                     47.0000   414592         
     51    53       47.0000   285                     47.0000   416482         
     52    54       47.3857   282                     47.0000   418519         
     54    56       47.0000   277                     47.0000   419301         
     56    58       47.0451   271                     47.0000   420336         
     57    59       47.0665   281                     47.0000   421356         
     58    60       47.0479   279                     47.0000   422508         
     61    63       47.2160   282                     47.0000   422822         
Elapsed time = 1262.70 sec. (1975929.86 ticks, tree = 10.63 MB, solutions = 0)
     66    68       47.8355   286                     47.0000   423241         
     75    74       48.8121   270                     47.0000   423699         
     80    77       73.5000   154                     47.0000   423896         
    100    93      111.1750    95                     47.0000   424161         
    120   108      116.2000    86                     47.0000   424358         
    140   126      139.0000    93                     47.0000   424579         
    160   139      149.2000    67                     47.0000   424860         
    180   156      158.3750    35                     47.0000   425156         
*   206   157      integral     0      196.0000       47.0000   425364   76.02%
    206   156      196.0000     0      196.0000       47.0000   425364   76.02%
    207   157       47.9579   289      196.0000       47.0000   433567   76.02%
Elapsed time = 1284.09 sec. (2005767.76 ticks, tree = 28.18 MB, solutions = 1)
    210   157       47.9579   283      196.0000       47.0000   438551   76.02%
    212   159       47.9579   279      196.0000       47.0000   439366   76.02%
    213   160       47.9989   280      196.0000       47.0000   443036   76.02%
    214   161       48.1306   281      196.0000       47.0000   445109   76.02%
    216   163       48.1382   287      196.0000       47.0000   445673   76.02%
    220   166       59.3750   191      196.0000       47.0000   446157   76.02%
    237   181       74.3750   123      196.0000       47.0000   446396   76.02%
    251   193       74.3750   146      196.0000       47.0000   446651   76.02%
    264   204       74.3750   185      196.0000       47.0000   446951   76.02%
    278   216       98.0000   131      196.0000       47.0000   447316   76.02%
Elapsed time = 1303.77 sec. (2038458.36 ticks, tree = 38.97 MB, solutions = 1)
    290   228       98.0000   124      196.0000       47.0000   447538   76.02%
    309   247       98.0000   107      196.0000       47.0000   447798   76.02%
    331   268       99.0000    88      196.0000       47.0000   448218   76.02%
    352   287       99.0000   110      196.0000       47.0000   448702   76.02%
    374   305       99.0000   110      196.0000       47.0000   449102   76.02%
    384   310       47.9579   271      196.0000       47.0000   458546   76.02%
    385   311       47.9579   286      196.0000       47.0000   468797   76.02%
    386   312       50.6000   318      196.0000       47.0000   475512   76.02%
    387   313       50.6000   281      196.0000       47.0000   492609   76.02%
    388   314       51.3667   287      196.0000       47.0000   509250   76.02%
Elapsed time = 1383.28 sec. (2165219.43 ticks, tree = 57.38 MB, solutions = 1)
    391   317       51.3667   271      196.0000       47.0000   521261   76.02%
    398   322       71.0750   192      196.0000       47.0000   521646   76.02%
    404   326       58.1500   198      196.0000       47.0000   522019   76.02%
    414   336       58.1500   221      196.0000       47.0000   522305   76.02%
    423   345       58.1500   260      196.0000       47.0000   522561   76.02%
    425   347       58.1500   287      196.0000       47.0000   522958   76.02%
    427   349       58.1500   252      196.0000       47.0000   531253   76.02%
    428   350       58.1500   296      196.0000       47.0000   546873   76.02%
    429   351       58.1500   293      196.0000       47.0000   547222   76.02%
    431   353       58.1500   311      196.0000       47.0000   547747   76.02%
Elapsed time = 1431.78 sec. (2239824.24 ticks, tree = 64.42 MB, solutions = 1)
    433   355       59.5938   278      196.0000       47.0000   548283   76.02%
    440   361       63.1250   233      196.0000       47.0000   548598   76.02%
    456   376       75.7500   236      196.0000       47.0000   548827   76.02%
    470   388      119.3000   206      196.0000       47.0000   549064   76.02%
    481   399      137.0000   180      196.0000       47.0000   549356   76.02%
    493   411      137.0000   223      196.0000       47.0000   549609   76.02%
    494   412       60.0000   222      196.0000       47.0000   549799   76.02%
    495   412       54.8000   289      196.0000       47.0000   552601   76.02%
    496   413       47.0000   293      196.0000       47.0000   703929   76.02%
    497   414       47.0000   386      196.0000       47.0000   724520   76.02%
Elapsed time = 2778.54 sec. (4163261.76 ticks, tree = 75.16 MB, solutions = 1)
    498   414       47.0000   384      196.0000       47.0000   745788   76.02%
    499   415       47.0000   317      196.0000       47.0000   758422   76.02%
    500   415       47.0000   297      196.0000       47.0000   758848   76.02%
    501   416       47.0000   317      196.0000       47.0000   759008   76.02%
    502   416       47.0000   324      196.0000       47.0000   759041   76.02%
    503   416       47.0000   313      196.0000       47.0000   759502   76.02%
    504   416       47.0000   312      196.0000       47.0000   759514   76.02%
    505   417       47.0000   311      196.0000       47.0000   759515   76.02%
    506   417       47.0000   322      196.0000       47.0000   759599   76.02%
    507   418       47.0000   321      196.0000       47.0000   760005   76.02%
Elapsed time = 2949.95 sec. (4469669.61 ticks, tree = 75.95 MB, solutions = 1)
    508   418       47.0000   318      196.0000       47.0000   760020   76.02%
    509   418       47.0000   328      196.0000       47.0000   760231   76.02%
    510   418       47.0000   326      196.0000       47.0000   760903   76.02%
    511   419       47.0000   319      196.0000       47.0000   761168   76.02%
    512   420       47.0000   309      196.0000       47.0000   761237   76.02%
    513   420       47.0000   322      196.0000       47.0000   761267   76.02%
    514   420       47.0000   308      196.0000       47.0000   761269   76.02%
    515   421       47.0000   311      196.0000       47.0000   761284   76.02%
    516   421       47.0000   312      196.0000       47.0000   761285   76.02%
    517   421       47.0000   309      196.0000       47.0000   761316   76.02%
Elapsed time = 3043.13 sec. (4652125.17 ticks, tree = 76.44 MB, solutions = 1)
    519   421       47.0000   294      196.0000       47.0000   766622   76.02%
    520   421       47.0000   298      196.0000       47.0000   766624   76.02%
    521   421       47.0000   300      196.0000       47.0000   770238   76.02%
    522   422       47.0000   296      196.0000       47.0000   770328   76.02%
    523   423       47.0000   310      196.0000       47.0000   771353   76.02%
    524   423       47.0000   297      196.0000       47.0000   771534   76.02%
    525   423       47.0000   304      196.0000       47.0000   772946   76.02%
    526   424       47.0000   294      196.0000       47.0000   772949   76.02%
    527   425       47.0000   311      196.0000       47.0000   776857   76.02%
    528   425       47.0000   299      196.0000       47.0000   777380   76.02%
Elapsed time = 3126.10 sec. (4811843.06 ticks, tree = 77.10 MB, solutions = 1)
    529   426       47.0000   299      196.0000       47.0000   777812   76.02%
    530   427       47.0000   286      196.0000       47.0000   778115   76.02%
    533   429       47.0000   283      196.0000       47.0000   778520   76.02%
    535   431       47.0000   300      196.0000       47.0000   779085   76.02%
    538   421       47.0000   295      196.0000       47.0000   780341   76.02%
    540   422       47.0000   301      196.0000       47.0000   782626   76.02%
    542   424       51.7375   299      196.0000       47.0000   789994   76.02%
    545   425       47.0000   301      196.0000       47.0000   790426   76.02%
    547   426       52.0000   297      196.0000       47.0000   802710   76.02%
    550   428       47.0000   290      196.0000       47.0000   808148   76.02%
Elapsed time = 3193.26 sec. (4924332.20 ticks, tree = 77.56 MB, solutions = 1)
    552   429       47.0000   302      196.0000       47.0000   809215   76.02%
    554   428       49.0000   341      196.0000       47.0000   814128   76.02%
    556   429       49.0000   321      196.0000       47.0000   814141   76.02%
    557   428       57.0000   295      196.0000       47.0000   822073   76.02%
    560   429       87.0000   219      196.0000       47.0000   822495   76.02%
    567   432       88.0000   230      196.0000       47.0000   822585   76.02%
    568   433       88.0000   258      196.0000       47.0000   834113   76.02%
    571   433       92.0000   261      196.0000       47.0000   852624   76.02%
    574   434       92.0000   251      196.0000       47.0000   852737   76.02%
    575   435       92.0000   237      196.0000       47.0000   870818   76.02%
Elapsed time = 3316.93 sec. (5105807.89 ticks, tree = 78.79 MB, solutions = 1)
    576   436       92.0000   249      196.0000       47.0000   872683   76.02%
    577   436       92.0000   198      196.0000       47.0000   887026   76.02%
    579   437       92.0000   169      196.0000       47.0000   898426   76.02%
    584   438       97.0000   160      196.0000       47.0000   898882   76.02%
    592   441      147.2333   171      196.0000       47.0000   899380   76.02%
*   596+  319                          182.0000       47.0000            74.18%
*   596+  237                          145.0000       47.0000            67.59%
*   596+  183                          141.0000       47.0000            66.67%
    596   180      148.0000   159      141.0000       47.0000   899454   66.67%
    597   180       50.0000   339      141.0000       47.0000   913737   66.67%
    602   180       52.0000   271      141.0000       47.0000   913945   66.67%
    606   181       61.0000   204      141.0000       47.0000   914292   66.67%
    614   181       70.0000   212      141.0000       47.0000   914565   66.67%
Elapsed time = 3471.75 sec. (5336422.45 ticks, tree = 32.31 MB, solutions = 4)
    622   184       71.0000   218      141.0000       47.0000   914844   66.67%
    631   188       71.0000   212      141.0000       47.0000   915103   66.67%
    641   192       71.0000   220      141.0000       47.0000   915371   66.67%
    651   195       71.0000   216      141.0000       47.0000   915595   66.67%
    660   200       71.0000   170      141.0000       47.0000   915907   66.67%
    667   197       73.0000   158      141.0000       47.0000   916790   66.67%
    676   200       73.0000   186      141.0000       47.0000   917212   66.67%
    677   201       73.0000   161      141.0000       47.0000   921778   66.67%
    682   203       73.0295   166      141.0000       47.0000   923467   66.67%
    693   206       74.0000   147      141.0000       47.0000   924037   66.67%
Elapsed time = 3500.76 sec. (5377155.89 ticks, tree = 36.86 MB, solutions = 4)
    696   207       74.2566   155      141.0000       47.0000   924200   66.67%
    704   209       78.0000   149      141.0000       47.0000   925294   66.67%
    716   209       81.1506   158      141.0000       47.0000   925612   66.67%
    725   208      101.0000   129      141.0000       47.0000   925955   66.67%
    733   210      108.9732    90      141.0000       47.0000   926442   66.67%
    748   207       49.1875   313      141.0000       47.0000   932671   66.67%
    754   209       52.5000   215      141.0000       47.0000   932774   66.67%
    765   211       80.0000   179      141.0000       47.0000   932883   66.67%
    773   216       80.0000   206      141.0000       47.0000   933065   66.67%

Clique cuts applied:  2
Cover cuts applied:  5
Implied bound cuts applied:  1
Mixed integer rounding cuts applied:  33
Zero-half cuts applied:  22
Gomory fractional cuts applied:  2

Root node processing (before b&c):
  Real time             =  839.04 sec. (1295992.79 ticks)
Sequential b&c:
  Real time             = 2760.97 sec. (4227013.69 ticks)
                          ------------
Total (root+branch&cut) = 3600.02 sec. (5523006.48 ticks)

Solution pool: 4 solutions saved.

MIP - Time limit exceeded, integer feasible:  Objective =  1.4100000000e+02
Current MIP best bound =  4.7000000000e+01 (gap = 94, 66.67%)
Solution time = 3600.02 sec.  Iterations = 933176  Nodes = 782 (219)
Deterministic time = 5523007.07 ticks  (1534.16 ticks/sec)

CPLEX> Incumbent solution
Variable Name           Solution Value
y                           141.000000
x53                           1.000000
x5796                         1.000000
x11559                        1.000000
x17364                        1.000000
x23116                        1.000000
x28937                        1.000000
x34681                        1.000000
x40475                        1.000000
x46252                        1.000000
x52048                        1.000000
x57784                        1.000000
x63595                        1.000000
x69341                        1.000000
x75105                        1.000000
x80904                        1.000000
x86685                        1.000000
x92426                        1.000000
x98233                        1.000000
x103995                       1.000000
x109786                       1.000000
x115550                       1.000000
x121366                       1.000000
x127095                       1.000000
x132904                       1.000000
x138673                       1.000000
x144426                       1.000000
x150181                       1.000000
x156012                       1.000000
x161778                       1.000000
x167510                       1.000000
x173302                       1.000000
x179124                       1.000000
x184884                       1.000000
x190674                       1.000000
x196392                       1.000000
x202191                       1.000000
x3953                         1.000000
x6765                         1.000000
x12009                        1.000000
x22497                        1.000000
x26525                        1.000000
x29945                        1.000000
x37089                        1.000000
x40509                        1.000000
x48793                        1.000000
x57609                        1.000000
x58369                        1.000000
x67945                        1.000000
x71821                        1.000000
x76305                        1.000000
x83829                        1.000000
x92189                        1.000000
x97281                        1.000000
x101233                       1.000000
x104881                       1.000000
x112861                       1.000000
x117725                       1.000000
x126541                       1.000000
x132089                       1.000000
x138321                       1.000000
x142273                       1.000000
x149037                       1.000000
x150481                       1.000000
x161273                       1.000000
x163021                       1.000000
x169557                       1.000000
x174877                       1.000000
x184149                       1.000000
x187569                       1.000000
x191369                       1.000000
x201097                       1.000000
x204441                       1.000000
x43626                        1.000000
x196919                       1.000000
x57688                        1.000000
x60125                        1.000000
x195559                       1.000000
x108009                       1.000000
x7234                         1.000000
x33151                        1.000000
x37560                        1.000000
x165470                       1.000000
x188727                       1.000000
x167905                       1.000000
x172092                       1.000000
x59540                        1.000000
x35829                        1.000000
x71474                        1.000000
x49511                        1.000000
x186237                       1.000000
x93138                        1.000000
x36519                        1.000000
x23986                        1.000000
x171123                       1.000000
x169072                       1.000000
x146351                       1.000000
x105998                       1.000000
x137083                       1.000000
x128802                       1.000000
x171061                       1.000000
x148262                       1.000000
x196599                       1.000000
x95293                        1.000000
x132535                       1.000000
x20057                        1.000000
x160507                       1.000000
x131476                       1.000000
x137025                       1.000000
x90058                        1.000000
x52287                        1.000000
x56848                        1.000000
u2                            1.000000
u3                            1.000000
u4                            2.000000
u9                           39.000000
u11                          39.000000
u13                           2.000000
u14                           2.000000
u15                           1.000000
u16                          37.000000
u18                           1.000000
u19                           3.000000
u20                           1.000000
u21                           2.000000
u25                          34.000000
u28                           7.000000
u32                           1.000000
u33                          39.000000
u34                           1.000000
u35                          39.000000
u37                           4.000000
u38                           1.000000
u39                          35.000000
u46                          39.000000
u47                           4.000000
u48                           3.000000
u51                           1.000000
u53                          21.000000
u54                           1.000000
u55                           1.000000
u58                           1.000000
u59                           4.000000
u60                          38.000000
u61                           6.000000
u62                          39.000000
u63                           2.000000
u65                          39.000000
u66                          38.000000
u67                          39.000000
u69                           1.000000
u70                          39.000000
u71                          39.000000
u72                           2.000000
u73                          10.000000
u74                          39.000000
u75                          39.000000
u76                           1.000000
All other variables in the range 1-205276 are 0.
CPLEX> 